c description: Random 3-CNF over 22 variables and 94 clauses
c generator: CNFgen (0.9.2)
c copyright: (C) 2012-2022 Massimo Lauria <massimo.lauria@uniroma1.it>
c url: https://massimolauria.net/cnfgen
c command line: cnfgen --output CNF_4.28/22_bit_94_406.cnf randkcnf 3 22 94
c
p cnf 22 94
-2 12 22 0
4 -7 -11 0
-3 6 -10 0
2 4 -12 0
-7 -20 22 0
-4 -18 20 0
-1 10 21 0
1 -8 -15 0
-8 10 -19 0
2 7 10 0
3 6 19 0
10 16 -19 0
7 -19 -22 0
-14 -15 20 0
8 -11 21 0
-11 -13 -21 0
-5 -15 20 0
8 -9 -17 0
11 -20 -22 0
-3 -6 20 0
5 16 20 0
4 -9 -14 0
4 10 -11 0
11 -12 15 0
-7 13 -17 0
-5 7 -10 0
16 18 19 0
-2 -18 -21 0
-7 10 -17 0
5 11 -19 0
11 14 21 0
-7 15 -20 0
-2 -3 15 0
5 11 -13 0
12 13 -14 0
-13 15 -22 0
-2 11 17 0
-2 4 -19 0
3 19 -21 0
12 14 -17 0
1 6 11 0
6 9 -10 0
-9 15 -22 0
2 10 -14 0
14 -15 19 0
-6 -17 22 0
-7 -17 21 0
-10 12 18 0
-2 18 19 0
-13 20 22 0
8 17 22 0
-2 -7 -9 0
-4 14 18 0
-3 -13 20 0
-6 -18 20 0
-5 13 22 0
2 -4 8 0
7 8 -20 0
-5 -11 16 0
-1 2 -21 0
-3 4 -11 0
-3 5 -7 0
-2 16 -18 0
6 9 -12 0
18 -19 -20 0
-4 -14 -18 0
-7 -13 19 0
6 7 -21 0
4 5 11 0
-14 15 -18 0
-4 16 21 0
10 16 21 0
-3 7 -13 0
-17 -19 22 0
5 7 -18 0
-1 -2 9 0
13 17 19 0
2 8 20 0
-3 11 -15 0
-9 -11 16 0
3 -11 18 0
4 -16 -21 0
1 15 -20 0
2 6 15 0
-3 -6 -15 0
-5 20 -21 0
-3 17 18 0
-4 -16 -18 0
7 12 17 0
-8 11 -13 0
-4 -12 17 0
1 13 15 0
-2 6 -7 0
-4 17 -20 0
